benchmark_instances/dzn_benchmark_instances/benchmark_instance_6-5.dzn
% Input: sequence of points
seq_points = [|2,2
              |5,2
              |1,3
              |2,3
              |5,3
              |1,4
              |6,0
              |6,3
              |6,4
              |6,6
              |0,6
              |0,0
             |];

num_points = 12;
