benchmark_instances/lp_benchmark_instances/benchmark_instance_6-5.lp
% Input: sequence of points
point(2,2).
point(5,2).
point(1,3).
point(2,3).
point(5,3).
point(1,4).
point(6,0).
point(6,3).
point(6,4).
point(6,6).
point(0,6).
point(0,0).
